%nprocshared=24
%mem=8000MB
%chk=frame1-ME.chk
# opt=(quadmac,maxcycles=10000) oniom(ub1lyp/gen:uff) scf=direct

ONIOM OPT Frame100 pMMO

1 2 1 2 1 2
 N-N_3            0   -7.08031900   11.25766900   -1.98970100 H
 H-H_             0   -6.36272300   10.73554300   -1.48372300 H
 H-H_             0   -7.94635800   11.05709900   -1.47932500 H
 C-C_3            0   -6.77611700   12.70334400   -1.87755200 H
 H-H_             0   -5.75952000   12.84366900   -2.24042600 H
 C-C_3            0   -7.74512500   13.53074800   -2.74785200 H
 H-H_             0   -8.78087200   13.23000200   -2.55431000 H
 H-H_             0   -7.66399600   14.58702500   -2.47646400 H
 C-C_R            0   -7.39543000   13.37299300   -4.19434600 H
 N-N_R            0   -7.33335700   12.11894100   -4.79615300 H
 C-C_R            0   -6.98953300   14.31718400   -5.10166800 H
 H-H_             0   -6.87102000   15.38459600   -5.01506500 H
 C-C_R            0   -6.90090800   12.32655700   -6.03644900 H
 H-H_             0   -6.71024000   11.58016600   -6.78616100 H
 N-N_R            0   -6.69414100   13.63357500   -6.26014000 H
 H-H_             0   -6.23635500   13.97214400   -7.10311600 H
 C-C_R            0   -6.84108200   13.13338600   -0.40515700 H
 O-O_R            0   -7.74836500   12.73823200    0.33911400 H
 N-N_R--0.415700  0   -5.84174100   13.94701800   -0.00671800 H
 H-H_-0.271900    0   -5.11309300   14.17135600   -0.67920700 H
 C-C_3--0.025200  0   -5.68985800   14.42596800    1.36224400 H
 H-H_-0.069800    0   -5.95266600   15.48315700    1.43976000 H
 H-H_-0.069800    0   -6.39007300   13.86601800    1.98619100 H
 C-C_R-0.597300   0   -4.26712400   14.30852800    1.95220200 H
 O-O_R--0.567900  0   -3.96204600   15.07350700    2.84989300 H
 N-N_R--0.516300  0   -3.46682200   13.38213800    1.34473600 H
 H-H_-0.293600    0   -3.93736300   12.72515200    0.73822100 H
 C-C_3-0.039700   0   -2.10708700   12.92194900    1.69303100 H
 H-H_-0.110500    0   -2.16755100   12.22949300    2.54144300 H
 C-C_3-0.056000   0   -1.51491800   12.15262000    0.48682000 H
 H-H_--0.017300   0   -0.49056000   11.85529300    0.73942100 H
 H-H_--0.017300   0   -2.07608400   11.22198400    0.34842600 H
 C-C_3-0.013600   0   -1.50779100   12.92487100   -0.84842400 H
 H-H_--0.042500   0   -1.08955300   13.92664400   -0.74040900 H
 H-H_--0.042500   0   -0.85024600   12.41446900   -1.56060900 H
 C-C_R-0.805400   0   -2.87533400   13.04663700   -1.52728600 H
 O-O_R--0.818800  0   -3.67269300   12.05231300   -1.48402400 H
 O-O_R--0.818800  0   -3.16321000   14.14126200   -2.09233000 H
 C-C_R-0.536600   0   -1.16128100   14.01696800    2.09655000 L H-H_ 28
 O-O_R--0.581900  0   -0.16484500   13.71364300    2.80903200 L
 N-N_R--0.347900  0   -1.22709800   15.25635200    1.53881000 L
 H-H_-0.274700    0   -2.06949200   15.47403800    0.96114500 L
 C-C_3--0.240000  0   -0.15517400   16.26953000    1.69365400 L
 H-H_-0.142600    0    0.82161900   15.77985400    1.48149300 L
 C-C_3--0.009400  0   -0.32901900   17.42766900    0.68345000 L
 H-H_-0.036200    0   -1.27058700   17.97665100    0.90801300 L
 H-H_-0.036200    0    0.51659700   18.13995100    0.79694700 L
 C-C_3-0.018700   0   -0.37032000   16.92430200   -0.77486700 L
 H-H_-0.010300    0    0.45730400   16.20767400   -0.95584200 L
 H-H_-0.010300    0   -1.31554400   16.36566000   -0.92964400 L
 C-C_3--0.047900  0   -0.35648800   18.06861600   -1.80811700 L
 H-H_-0.062100    0   -0.94742800   17.75902200   -2.69869500 L
 H-H_-0.062100    0   -0.87528000   18.95965600   -1.39142600 L
 C-C_3--0.014300  0    1.05341400   18.47421500   -2.27429900 L
 H-H_-0.113500    0    0.96183900   19.37362400   -2.92849200 L
 H-H_-0.113500    0    1.67185500   18.78459200   -1.40175200 L
 N-N_3--0.385400  0    1.72179600   17.39503800   -3.01778000 L
 H-H_-0.340000    0    2.16511400   16.71751000   -2.35981800 L
 H-H_-0.340000    0    1.06978700   16.86737900   -3.64440100 L
 H-H_-0.340000    0    2.51241900   17.78135100   -3.58771000 L
 C-C_R-0.734100   0   -0.04933000   16.79257900    3.11618600 L
 O-O_R--0.589400  0    1.07310100   17.19641700    3.52487100 L
 N-N_R--0.415700  0   -1.11565400   16.79324000    3.95510500 L
 H-H_-0.271900    0   -2.02463300   16.43443900    3.59121200 L
 C-C_3--0.024900  0   -1.03808900   17.14375700    5.39185100 L
 H-H_-0.084300    0   -0.07605700   17.65095700    5.62022100 L
 C-C_3-0.211700   0   -2.16001400   18.11525500    5.76776300 L
 H-H_-0.035200    0   -3.14672000   17.67957800    5.48215700 L
 H-H_-0.035200    0   -2.15267700   18.28803700    6.86846100 L
 O-O_3--0.654600  0   -1.96112500   19.33720600    5.10954400 L
 H-H_-0.427500    0   -2.78047900   19.87474600    5.26860100 L
 C-C_R-0.597300   0   -1.15174600   15.89456800    6.23523000 L
 O-O_R--0.567900  0   -2.23435100   15.25227400    6.23436400 L
 N-N_R--0.415700  0   -0.08610200   15.41979000    6.92828800 L
 H-H_-0.271900    0    0.78583800   15.99413700    6.95090200 L
 C-C_3--0.003100  0    0.00887400   14.02013300    7.39498900 L
 H-H_-0.085000    0   -0.98094600   13.52191400    7.30287300 L
 C-C_3--0.003600  0    1.02378800   13.29398600    6.48770000 L
 H-H_-0.017100    0    0.80426300   13.54541200    5.42670900 L
 H-H_-0.017100    0    2.03968100   13.68926800    6.70017800 L
 C-C_3--0.064500  0    1.03909000   11.76413600    6.63160500 L
 H-H_-0.035200    0    1.77867500   11.35078800    5.91935600 L
 H-H_-0.035200    0    1.36306800   11.47791100    7.65411900 L
 C-C_R-0.695100   0   -0.28734600   11.14581400    6.31836000 L
 O-O_R--0.608600  0   -0.97251800   10.63402400    7.23148200 L
 N-N_R--0.940700  0   -0.80499400   11.19690400    5.08983100 L
 H-H_-0.425100    0   -0.29588500   11.67352800    4.31736700 L
 H-H_-0.425100    0   -1.75450000   10.79907100    4.95218500 L
 C-C_R-0.597300   0    0.42479600   13.93952800    8.85624700 L
 O-O_R--0.567900  0    1.17602100   14.82733000    9.34278600 L
 N-N_R--0.415700  0    0.05880400   12.88224300    9.62518600 L
 H-H_-0.271900    0   -0.52629300   12.13608800    9.18598100 L
 C-C_3-0.033700   0    0.56759300   12.67973000   10.99577700 L
 H-H_-0.082300    0    0.32736500   13.58264100   11.59922000 L
 C-C_3--0.182500  0   -0.14812500   11.48760800   11.64238600 L
 H-H_-0.060300    0    0.05252100   10.55532200   11.07000100 L
 H-H_-0.060300    0    0.20081800   11.34625400   12.68798500 L
 H-H_-0.060300    0   -1.24467500   11.66559200   11.65846300 L
 C-C_R-0.597300   0    2.07588800   12.45812500   11.00480200 L
 O-O_R--0.567900  0    2.57245600   11.59603000   10.23300100 L
 N-N_R--0.415700  0    2.87545800   13.10940700   11.89098400 L
 H-H_-0.271900    0    2.41667400   13.83177300   12.48782900 L
 C-C_3-0.033700   0    4.34556400   13.18565600   11.75085600 L
 H-H_-0.082300    0    4.56477600   13.78945600   10.84542200 L
 C-C_3--0.182500  0    4.94541900   13.92994900   12.95018800 L
 H-H_-0.060300    0    4.66947200   13.43988900   13.90724100 L
 H-H_-0.060300    0    6.05334800   13.95866500   12.86554500 L
 H-H_-0.060300    0    4.58403600   14.98112500   12.96605100 L
 C-C_R-0.597300   0    5.02149100   11.82963900   11.57591500 L
 O-O_R--0.567900  0    5.69108800   11.60734000   10.53035300 L
 N-N_R--0.415700  0    4.92594500   10.86424900   12.52614700 L
 H-H_-0.271900    0    4.35699800   11.07275100   13.37272600 L
 C-C_3--0.002400  0    5.56992800    9.53914800   12.37469100 L
 H-H_-0.097800    0    6.65160900    9.69661700   12.15365900 L
 C-C_3--0.034300  0    5.50772700    8.72718700   13.69133100 L
 H-H_-0.029500    0    6.19554200    7.85591600   13.61645400 L
 H-H_-0.029500    0    5.90494500    9.35185800   14.52123400 L
 C-C_R-0.011800   0    4.12043600    8.23291700   14.03727800 L
 C-C_R--0.125600  0    3.64551300    7.02133200   13.50323000 L
 H-H_-0.133000    0    4.27466700    6.42659600   12.85333400 L
 C-C_R--0.125600  0    3.30314400    8.95725500   14.92098100 L
 H-H_-0.133000    0    3.67388500    9.85497300   15.39711000 L
 C-C_R--0.170400  0    2.35776200    6.57035700   13.80859600 L
 H-H_-0.143000    0    1.99745100    5.63879600   13.39138700 L
 C-C_R--0.170400  0    2.01645000    8.50092500   15.22720800 L
 H-H_-0.143000    0    1.39582700    9.04984200   15.92435400 L
 C-C_R--0.107200  0    1.54277600    7.31208700   14.66709900 L
 H-H_-0.129700    0    0.55399500    6.95175700   14.92422800 L
 C-C_R-0.597300   0    4.99155100    8.75690900   11.20864200 L
 O-O_R--0.567900  0    5.75728000    8.09124400   10.45945200 L
 N-N_R--0.415700  0    3.65877200    8.78106800   10.94773900 L
 H-H_-0.271900    0    3.05826600    9.39964700   11.53557600 L
 C-C_3--0.023700  0    3.03293500    7.92737300    9.91840300 L
 H-H_-0.088000    0    3.53287000    6.93356500    9.96144500 L
 C-C_3-0.034200   0    1.52896000    7.71480400   10.22841400 L
 H-H_-0.024100    0    1.34408300    7.86246600   11.31507600 L
 H-H_-0.024100    0    0.90751500    8.45936800    9.68320800 L
 C-C_3-0.001800   0    1.07050000    6.29363200    9.88047800 L
 H-H_-0.044000    0    1.16936400    6.11353000    8.78977500 L
 H-H_-0.044000    0    1.70599500    5.56755900   10.43015200 L
 S-S_3+2--0.273700  0   -0.66780400    6.04120500   10.37646700 L
 C-C_3--0.053600  0   -0.62100700    4.23220300   10.15177900 L
 H-H_-0.068400    0   -0.39701600    3.98556000    9.09423500 L
 H-H_-0.068400    0    0.14927400    3.78223500   10.81273300 L
 H-H_-0.068400    0   -1.60739800    3.80309600   10.42029600 L
 C-C_R-0.597300   0    3.24444200    8.43822600    8.49761200 L
 O-O_R--0.567900  0    2.88945600    7.68591800    7.55052900 L
 N-N_R--0.347900  0    3.98682600    9.55337200    8.22201900 L
 H-H_-0.274700    0    4.22196000   10.19225200    9.01248600 L
 C-C_3--0.263700  0    4.50631200    9.87833000    6.86734200 L
 H-H_-0.156000    0    3.66619300   10.13350600    6.19090800 L
 C-C_3--0.000700  0    5.52073000   11.04279000    6.90054100 L
 H-H_-0.032700    0    6.28468800   10.86663400    7.69080300 L
 H-H_-0.032700    0    6.04780300   11.05325300    5.92405900 L
 C-C_3-0.039000   0    4.90120200   12.43133700    7.09814300 L
 H-H_-0.028500    0    4.02097100   12.54307100    6.43395200 L
 H-H_-0.028500    0    4.56956300   12.54701800    8.15203900 L
 C-C_3-0.048600   0    5.93079200   13.51405600    6.72582500 L
 H-H_-0.068700    0    6.96103300   13.21884600    7.03037100 L
 H-H_-0.068700    0    5.96702500   13.59713900    5.61544200 L
 N-N_R--0.529500  0    5.58331700   14.81957400    7.30098000 L
 H-H_-0.345600    0    5.15937500   15.52826900    6.66780700 L
 C-C_R-0.807600   0    6.02771500   15.27349400    8.48632600 L
 N-N_R--0.862700  0    5.93451200   16.55921700    8.77739900 L
 H-H_-0.447800    0    5.88358900   17.23857700    7.99511100 L
 H-H_-0.447800    0    6.41574100   16.91109900    9.63426100 L
 N-N_R--0.862700  0    6.55306100   14.45525600    9.38263900 L
 H-H_-0.447800    0    6.61824900   13.43683000    9.23208900 L
 H-H_-0.447800    0    6.95188200   14.85125000   10.25397300 L
 C-C_R-0.734100   0    5.19829400    8.69200000    6.24720800 L
 O-O_R--0.589400  0    4.92728600    8.37430600    5.06305000 L
 N-N_R--0.415700  0    6.18904600    8.05995500    6.92005400 L
 H-H_-0.271900    0    6.44375200    8.43942600    7.86033600 L
 C-C_3--0.023700  0    6.96916100    6.93414700    6.36999000 L
 H-H_-0.088000    0    6.64868100    6.69524200    5.33185400 L
 C-C_3-0.034200   0    8.45582300    7.32399700    6.32762300 L
 H-H_-0.024100    0    8.77989000    7.65632800    7.33643100 L
 H-H_-0.024100    0    9.06143700    6.44496100    6.04838100 L
 C-C_3-0.001800   0    8.71605900    8.42101300    5.29182300 L
 H-H_-0.044000    0    8.46056100    8.03178500    4.28330700 L
 H-H_-0.044000    0    8.07107200    9.29961900    5.48830500 L
 S-S_3+2--0.273700  0   10.47719700    8.91508500    5.26630100 L
 C-C_3--0.053600  0   10.40738900    9.97481700    6.75040900 L
 H-H_-0.068400    0    9.54039800   10.66497400    6.71020400 L
 H-H_-0.068400    0   10.35268700    9.35496900    7.66821200 L
 H-H_-0.068400    0   11.33063400   10.58325000    6.79690000 L
 C-C_R-0.597300   0    6.78095100    5.65046700    7.16073800 L
 O-O_R--0.567900  0    7.31853100    4.59997500    6.73093500 L
 N-N_R--0.347900  0    6.03218500    5.58830000    8.29469800 L
 H-H_-0.274700    0    5.53902900    6.44600100    8.62007700 L
 C-C_3--0.263700  0    5.87860600    4.36032100    9.10845700 L
 H-H_-0.156000    0    6.52857000    3.54099900    8.73100300 L
 C-C_3--0.000700  0    6.29666000    4.63809700   10.56766000 L
 H-H_-0.032700    0    5.63080500    5.40875800   11.01373100 L
 H-H_-0.032700    0    6.18483300    3.70134900   11.15815500 L
 C-C_3-0.039000   0    7.75403400    5.12328700   10.64589400 L
 H-H_-0.028500    0    8.40727500    4.42523800   10.08199000 L
 H-H_-0.028500    0    7.83568200    6.12253600   10.16536700 L
 C-C_3-0.048600   0    8.24626500    5.24953200   12.09333000 L
 H-H_-0.068700    0    9.21634600    5.78926600   12.12431200 L
 H-H_-0.068700    0    7.53627000    5.88789700   12.66723800 L
 N-N_R--0.529500  0    8.35947400    3.93417600   12.73841200 L
 H-H_-0.345600    0    7.62240200    3.68383600   13.42941300 L
 C-C_R-0.807600   0    9.33773400    3.03261400   12.54718700 L
 N-N_R--0.862700  0    9.31350400    1.88487400   13.19958100 L
 H-H_-0.447800    0    8.59576000    1.70657300   13.93265000 L
 H-H_-0.447800    0   10.10210900    1.21452700   13.11803500 L
 N-N_R--0.862700  0   10.33040200    3.25495100   11.70151900 L
 H-H_-0.447800    0   10.41912100    4.14049900   11.18712400 L
 H-H_-0.447800    0   11.09603200    2.55811200   11.59641100 L
 C-C_R-0.734100   0    4.46759000    3.84115200    8.99321800 L
 O-O_R--0.589400  0    3.66906900    3.95849800    9.95817000 L
 N-N_R--0.415700  0    4.02439300    3.37896100    7.80027800 L
 H-H_-0.271900    0    4.72853100    3.28450700    7.03124300 L
 C-C_3--0.038900  0    2.60419300    3.05340000    7.51803500 L
 H-H_-0.100700    0    2.00035300    3.15116200    8.44517700 L
 C-C_3-0.365400   0    2.02665800    4.06459600    6.50093500 L
 H-H_-0.004300    0    2.44702800    5.06751900    6.75454500 L
 O-O_3--0.676100  0    0.63085800    4.10255200    6.61539700 L
 H-H_-0.410200    0    0.35379200    5.00022100    6.28345800 L
 C-C_3--0.243800  0    2.39057500    3.75196500    5.05199400 L
 H-H_-0.064200    0    1.83100200    2.86640100    4.69187000 L
 H-H_-0.064200    0    2.11463000    4.61253700    4.40968100 L
 H-H_-0.064200    0    3.47880400    3.56080600    4.95437900 L
 C-C_R-0.597300   0    2.43790400    1.61495100    7.06888000 L
 O-O_R--0.567900  0    3.44883500    0.86857200    6.97591900 L
 N-N_R--0.415700  0    1.21203700    1.10390200    6.79322000 L
 H-H_-0.271900    0    0.40572900    1.76373200    6.80157500 L
 C-C_3--0.059700  0    1.01494900   -0.27713700    6.29533400 L
 H-H_-0.086900    0    1.51853000   -0.97935500    6.99261300 L
 C-C_3-0.130300   0   -0.49531200   -0.63685100    6.25064400 L
 H-H_-0.018700    0   -0.99640000    0.09505000    5.57748100 L
 C-C_3--0.043000  0   -1.18228800   -0.50117500    7.63694300 L
 H-H_-0.023600    0   -1.13052600    0.54967100    7.98767200 L
 H-H_-0.023600    0   -2.26188300   -0.72638100    7.52431300 L
 C-C_3--0.320400  0   -0.74524400   -2.03055100    5.64519000 L
 H-H_-0.088200    0   -0.16114000   -2.81358300    6.17127800 L
 H-H_-0.088200    0   -1.82384300   -2.27905500    5.69862300 L
 H-H_-0.088200    0   -0.47032500   -2.04478300    4.56764500 L
 C-C_3--0.066000  0   -0.60488200   -1.39934200    8.73770900 L
 H-H_-0.018600    0    0.42558600   -1.08708500    9.00534500 L
 H-H_-0.018600    0   -1.23167300   -1.30516200    9.64972600 L
 H-H_-0.018600    0   -0.60551500   -2.46550300    8.43251100 L
 C-C_R-0.597300   0    1.64761500   -0.44934400    4.92594700 L
 O-O_R--0.567900  0    1.42070800    0.40037700    4.02365700 L
 N-N_R            0    2.44415200   -1.51405500    4.66053800 L
 H-H_             0    2.61131300   -2.20481600    5.42551800 L
 C-C_3            0    3.07793500   -1.73865900    3.34447700 L
 H-H_             0    3.54225000   -0.80343600    3.00382400 L
 C-C_3            0    4.18217800   -2.80649000    3.45913700 L
 H-H_             0    3.74798500   -3.71017300    3.92518200 L
 H-H_             0    4.55086300   -3.05234800    2.44086300 L
 C-C_R            0    5.38748000   -2.42227100    4.26991800 L
 N-N_R            0    6.45583900   -3.31957000    4.55570700 L
 C-C_R            0    5.67145000   -1.23827600    4.79528200 L
 H-H_             0    5.04269800   -0.35897700    4.79958900 L
 C-C_R            0    7.33824300   -2.59546700    5.26125200 L
 H-H_             0    8.19786800   -3.03484600    5.75603200 L
 N-N_R            0    6.94097100   -1.32181700    5.42802100 L
 H-H_             0    7.38565500   -0.61778300    6.05310900 L
 C-C_R            0    2.07022700   -2.15327200    2.28434000 L
 O-O_R            0    1.27386500   -3.09771000    2.52796400 L
 N-N_R--0.415700  0    2.10840300   -1.61042900    1.03946700 L
 H-H_-0.271900    0    2.80085700   -0.85477100    0.84715400 L
 C-C_3--0.027500  0    1.22116000   -2.01540200   -0.07258500 L
 H-H_-0.112300    0    0.65011600   -2.93190100    0.18920800 L
 C-C_3--0.005000  0    0.21280200   -0.89194800   -0.37448300 L
 H-H_-0.033900    0    0.76164600    0.00470100   -0.74078200 L
 H-H_-0.033900    0   -0.47749600   -1.21110100   -1.18406000 L
 C-C_R--0.141500  0   -0.59923400   -0.50221800    0.82649700 L
 C-C_R--0.163800  0   -0.41128100    0.60243700    1.55541700 L
 H-H_-0.206200    0    0.39307700    1.31239200    1.39943500 L
 C-C_R-0.124300   0   -1.77129600   -1.18420100    1.36940500 L
 N-N_R--0.341800  0   -1.39768900    0.72435400    2.58616400 L
 H-H_-0.341200    0   -1.41883100    1.41428700    3.36907700 L
 C-C_R-0.138000   0   -2.21436900   -0.42083500    2.42012400 L
 C-C_R--0.238700  0   -2.42441200   -2.35567400    0.99005600 L
 H-H_-0.170000    0   -2.05789500   -2.94930800    0.16506700 L
 C-C_R--0.260100  0   -3.33864700   -0.76975200    3.16110400 L
 H-H_-0.157200    0   -3.67223900   -0.14925500    3.98037200 L
 C-C_R--0.197200  0   -3.56388500   -2.73786600    1.72506800 L
 H-H_-0.144700    0   -4.08981100   -3.64979900    1.47240200 L
 C-C_R--0.113400  0   -4.02053200   -1.94636600    2.80074100 L
 H-H_-0.141700    0   -4.90074100   -2.24928300    3.34923500 L
 C-C_R-0.597300   0    2.03749000   -2.28536300   -1.32598600 L
 O-O_R--0.567900  0    2.67035200   -1.33184000   -1.85438400 L
 N-N_R--0.415700  0    2.06223800   -3.50865000   -1.91432700 L
 H-H_-0.271900    0    1.57418100   -4.30341300   -1.44692800 L
 C-C_3--0.001400  0    2.79222100   -3.75904200   -3.17869700 L
 H-H_-0.087600    0    2.82937900   -2.81029200   -3.75811800 L
 C-C_3--0.015200  0    4.25763500   -4.16151900   -2.88838700 L
 H-H_-0.029500    0    4.89019500   -3.78899300   -3.72443400 L
 H-H_-0.029500    0    4.62502400   -3.63120700   -1.98264300 L
 C-C_R--0.001100  0    4.47800000   -5.64540200   -2.70814800 L
 C-C_R--0.190600  0    5.26211000   -6.35081000   -3.63454600 L
 H-H_-0.169900    0    5.69183700   -5.83755900   -4.49080300 L
 C-C_R--0.190600  0    3.96022200   -6.32287100   -1.59255200 L
 H-H_-0.169900    0    3.37072400   -5.79107000   -0.85657400 L
 C-C_R--0.234100  0    5.53837200   -7.70859800   -3.43799100 L
 H-H_-0.165600    0    6.15881700   -8.22441200   -4.15697600 L
 C-C_R--0.234100  0    4.23118400   -7.68617900   -1.40566500 L
 H-H_-0.165600    0    3.84265900   -8.20173300   -0.53904200 L
 C-C_R-0.322600   0    5.03858400   -8.37614700   -2.30863500 L
 O-O_R--0.557900  0    5.31359500   -9.64533200   -2.07905900 L
 H-H_-0.399200    0    5.97565000  -10.02425900   -2.74419600 L
 C-C_R-0.597300   0    2.06684100   -4.73289900   -4.09686000 L
 O-O_R--0.567900  0    1.00817100   -5.29393500   -3.70631100 L
 N-N_R--0.516300  0    2.47121000   -4.88577200   -5.38518100 L
 H-H_-0.293600    0    3.40655400   -4.50134400   -5.63901800 L
 C-C_3-0.038100   0    1.81077700   -5.76276600   -6.37771800 L
 H-H_-0.088000    0    2.14224800   -5.46021200   -7.39676900 L
 C-C_3--0.030300  0    2.24806700   -7.21974800   -6.15608000 L
 H-H_--0.012200   0    2.06705100   -7.49311100   -5.09537700 L
 H-H_--0.012200   0    1.63074400   -7.89048000   -6.79060600 L
 C-C_R-0.799400   0    3.69212400   -7.47572700   -6.49511600 L
 O-O_R--0.801400  0    4.13373500   -8.65607500   -6.42614100 L
 O-O_R--0.801400  0    4.41496300   -6.59244800   -7.02814300 L
 C-C_R-0.536600   0    0.29205700   -5.59700800   -6.38652700 L
 O-O_R--0.581900  0   -0.47406000   -6.59247700   -6.20993300 L
 N-N_R--0.415700  0   -0.24254400   -4.37210000   -6.62013900 L
 H-H_-0.271900    0    0.41102500   -3.61232800   -6.90714900 L
 C-C_3--0.051800  0   -1.69281100   -4.12782500   -6.66782100 L
 H-H_-0.092200    0   -2.20726100   -4.82814900   -5.98618500 L
 C-C_3--0.110200  0   -2.03293100   -2.69946400   -6.19277700 L
 H-H_-0.045700    0   -1.64523100   -1.96762900   -6.93437600 L
 H-H_-0.045700    0   -3.14039700   -2.58797500   -6.17380500 L
 C-C_3-0.353100   0   -1.46581000   -2.33712600   -4.80275400 L
 H-H_--0.036100   0   -0.35537500   -2.35559200   -4.83816400 L
 C-C_3--0.412100  0   -1.89925400   -0.92566700   -4.43457800 L
 H-H_-0.100000    0   -3.00151700   -0.86194400   -4.34430600 L
 H-H_-0.100000    0   -1.44902900   -0.63225400   -3.46675100 L
 H-H_-0.100000    0   -1.56025100   -0.21723300   -5.21690300 L
 C-C_3--0.412100  0   -1.93142500   -3.29717400   -3.71186400 L
 H-H_-0.100000    0   -1.69955600   -2.89091200   -2.70572900 L
 H-H_-0.100000    0   -3.02197500   -3.48109800   -3.79914200 L
 H-H_-0.100000    0   -1.37744700   -4.25010800   -3.80813000 L
 C-C_R-0.597300   0   -2.22017500   -4.36564800   -8.06476000 L
 O-O_R--0.567900  0   -1.82260800   -3.63282100   -9.00688500 L
 N-N_R--0.415700  0   -3.16253900   -5.31329800   -8.29776500 L
 H-H_-0.271900    0   -3.57364100   -5.80300100   -7.47341600 L
 C-C_3--0.024900  0   -3.74040900   -5.56771200   -9.63235700 L
 H-H_-0.084300    0   -3.14865400   -5.04146600  -10.41068300 L
 C-C_3-0.211700   0   -3.67024100   -7.05972700  -10.00832300 L
 H-H_-0.035200    0   -4.29545400   -7.25147900  -10.90773500 L
 H-H_-0.035200    0   -2.62381900   -7.32052600  -10.28970200 L
 O-O_3--0.654600  0   -4.10635900   -7.88916800   -8.95957500 L
 H-H_-0.427500    0   -3.32074500   -7.99529100   -8.35562800 L
 C-C_R-0.597300   0   -5.14834000   -5.02678400   -9.70462100 L
 O-O_R--0.567900  0   -6.10824900   -5.69125300   -9.23144000 L
 N-N_R--0.415700  0   -5.38217400   -3.79699600  -10.23124300 L
 H-H_-0.271900    0   -4.53736300   -3.25748700  -10.52654500 L
 C-C_3--0.027500  0   -6.67458600   -3.08415100  -10.08107500 L
 H-H_-0.112300    0   -6.89016900   -3.02109600   -8.99015200 L
 C-C_3--0.005000  0   -6.58559300   -1.64777000  -10.66706800 L
 H-H_-0.033900    0   -5.53121700   -1.30979600  -10.75001700 L
 H-H_-0.033900    0   -7.00537000   -1.61646500  -11.69723400 L
 C-C_R--0.141500  0   -7.28291400   -0.64802500   -9.78914200 L
 C-C_R--0.163800  0   -8.35582500    0.08439800  -10.10990700 L
 H-H_-0.206200    0   -8.87560500    0.03439600  -11.06078100 L
 C-C_R-0.124300   0   -6.86684000   -0.24351400   -8.45027900 L
 N-N_R--0.341800  0   -8.73242500    0.96077500   -9.03544400 L
 H-H_-0.341200    0   -9.20984600    1.88549800   -9.14214400 L
 C-C_R-0.138000   0   -7.76757900    0.69943700   -8.02974600 L
 C-C_R--0.238700  0   -5.74953600   -0.58375900   -7.68773200 L
 H-H_-0.170000    0   -5.01483600   -1.28811500   -8.05774300 L
 C-C_R--0.260100  0   -7.64241800    1.33590700   -6.79960100 L
 H-H_-0.157200    0   -8.36450800    2.07729400   -6.48247300 L
 C-C_R--0.197200  0   -5.59126900    0.05131100   -6.44183400 L
 H-H_-0.144700    0   -4.72726900   -0.16825300   -5.82838500 L
 C-C_R--0.113400  0   -6.54079500    0.99555200   -5.99358600 L
 H-H_-0.141700    0   -6.40957700    1.47106800   -5.02954300 L
 C-C_R-0.597300   0   -7.85473400   -3.83018500  -10.68941600 L
 O-O_R--0.567900  0   -9.01416200   -3.49048800  -10.34882000 L
 N-N_R--0.415700  0   -7.68330300   -4.80037700  -11.62975000 L
 H-H_-0.271900    0   -6.71625900   -4.93120200  -11.99786800 L
 C-C_3--0.024900  0   -8.73809200   -5.67090900  -12.21261500 L
 H-H_-0.084300    0   -8.19999300   -6.54300500  -12.64781100 L
 C-C_3-0.211700   0   -9.69118300   -6.30094400  -11.17049100 L
 H-H_-0.035200    0   -9.96232800   -7.32482200  -11.50934500 L
 H-H_-0.035200    0   -9.15875400   -6.43030900  -10.19802800 L
 O-O_3--0.654600  0  -10.88917700   -5.58205200  -11.02318900 L
 H-H_-0.427500    0  -10.75971800   -5.00952100  -10.21283800 L
 C-C_R-0.597300   0   -9.44754800   -5.02824000  -13.38666300 L
 O-O_R--0.567900  0   -9.27447400   -5.52350300  -14.53309900 L
 N-N_R--0.347900  0  -10.15620600   -3.87735700  -13.25319000 L
 H-H_-0.274700    0  -10.34776600   -3.54153900  -12.28381200 L
 C-C_3--0.240000  0  -10.56890800   -3.02643900  -14.39316400 L
 H-H_-0.142600    0   -9.68915200   -2.89157000  -15.06057600 L
 C-C_3--0.009400  0  -11.67685600   -3.68606900  -15.24596600 L
 H-H_-0.036200    0  -12.03450100   -2.93967200  -15.99155700 L
 H-H_-0.036200    0  -11.23787600   -4.52533500  -15.82814400 L
 C-C_3-0.018700   0  -12.87112200   -4.22564600  -14.43839300 L
 H-H_-0.010300    0  -12.54065700   -5.09614600  -13.83205400 L
 H-H_-0.010300    0  -13.25124300   -3.44873400  -13.74682800 L
 C-C_3--0.047900  0  -14.00373700   -4.65443100  -15.38531300 L
 H-H_-0.062100    0  -14.21878400   -3.81911000  -16.09064900 L
 H-H_-0.062100    0  -13.67798000   -5.52646100  -15.99386100 L
 C-C_3--0.014300  0  -15.30985100   -4.97727000  -14.64473700 L
 H-H_-0.113500    0  -15.58761800   -4.11565100  -13.99298600 L
 H-H_-0.113500    0  -16.12455200   -5.08536000  -15.40243200 L
 N-N_3--0.385400  0  -15.20709800   -6.21021200  -13.85205300 L
 H-H_-0.340000    0  -14.60568700   -6.06975400  -13.00800100 L
 H-H_-0.340000    0  -16.15958200   -6.48586900  -13.51080400 L
 H-H_-0.340000    0  -14.84299600   -7.00435000  -14.42367800 L
 C-C_R-0.734100   0  -10.99365800   -1.65275300  -13.92171500 L
 O-O_R--0.589400  0  -11.85991500   -1.55987000  -13.01561700 L
 N-N_R--0.516300  0  -10.45178800   -0.53287800  -14.45511700 L
 H-H_-0.293600    0   -9.71856400   -0.64351600  -15.18790900 L
 C-C_3-0.039700   0  -10.86889100    0.83116200  -14.05445800 L
 H-H_-0.110500    0  -11.45897900    0.76595100  -13.11306000 L
 C-C_3-0.056000   0   -9.64010800    1.70533000  -13.69225800 L
 H-H_--0.017300   0   -9.93482200    2.37761300  -12.86138500 L
 H-H_--0.017300   0   -8.83045500    1.06190200  -13.28424400 L
 C-C_3-0.013600   0   -9.07191100    2.59788500  -14.80591700 L
 H-H_--0.042500   0   -9.87007800    3.21079600  -15.27584900 L
 H-H_--0.042500   0   -8.36976600    3.32292800  -14.33715800 L
 C-C_R-0.805400   0   -8.32889400    1.81703900  -15.84627900 L
 O-O_R--0.818800  0   -8.96217800    1.04684700  -16.61180900 L
 O-O_R--0.818800  0   -7.20749800    2.23501000  -16.23819900 L
 C-C_R-0.536600   0  -11.82832400    1.48716900  -15.04112500 L
 O-O_R--0.581900  0  -12.46391300    2.50271900  -14.65866100 L
 N-N_R--0.347900  0  -12.12744900    0.93400500  -16.25093000 L
 H-H_-0.274700    0  -11.57545600    0.10616700  -16.56470800 L
 C-C_3--0.240000  0  -13.29877300    1.35231300  -17.05957600 L
 H-H_-0.142600    0  -13.58813800    2.39313300  -16.80272700 L
 C-C_3--0.009400  0  -12.97959100    1.31930900  -18.57361900 L
 H-H_-0.036200    0  -12.46101900    0.37108400  -18.83749400 L
 H-H_-0.036200    0  -13.93680500    1.32979500  -19.14195300 L
 C-C_3-0.018700   0  -12.15457500    2.52766200  -19.06627500 L
 H-H_-0.010300    0  -12.09545800    2.47266400  -20.17528900 L
 H-H_-0.010300    0  -12.67567700    3.47360800  -18.80458100 L
 C-C_3--0.047900  0  -10.73356800    2.54102000  -18.49319100 L
 H-H_-0.062100    0  -10.79223700    2.75846800  -17.40878600 L
 H-H_-0.062100    0  -10.27848700    1.53817200  -18.64503300 L
 C-C_3--0.014300  0   -9.83550300    3.60133800  -19.14515500 L
 H-H_-0.113500    0   -9.74257300    3.38245100  -20.23565100 L
 H-H_-0.113500    0  -10.31186100    4.60645400  -19.03697200 L
 N-N_3--0.385400  0   -8.50450000    3.60288600  -18.51493900 L
 H-H_-0.340000    0   -7.83636900    4.22347400  -19.02401500 L
 H-H_-0.340000    0   -8.55798100    3.94249600  -17.52557900 L
 H-H_-0.340000    0   -8.09370100    2.63655300  -18.48014500 L
 C-C_R-0.734100   0  -14.48033700    0.46170100  -16.73520300 L
 O-O_R--0.589400  0  -14.41952600   -0.76630800  -17.02311600 L
 N-N_R--0.415700  0  -15.50306400    0.92717200  -15.97490200 L
 H-H_-0.271900    0  -15.47955400    1.93534100  -15.70246800 L
 C-C_3--0.087500  0  -16.55927800    0.06868900  -15.37878600 L
 H-H_-0.096900    0  -16.61314800   -0.89349000  -15.93135500 L
 C-C_3-0.298500   0  -16.23631500   -0.25959900  -13.89325800 L
 H-H_--0.029700   0  -16.91330800   -1.06788400  -13.54905300 L
 C-C_3--0.319200  0  -14.80897400   -0.78945400  -13.74761600 L
 H-H_-0.079100    0  -14.63504400   -1.62569800  -14.45278700 L
 H-H_-0.079100    0  -14.07196900    0.01361100  -13.95487300 L
 H-H_-0.079100    0  -14.61547200   -1.14449200  -12.71897200 L
 C-C_3--0.319200  0  -16.44046000    0.92804800  -12.95389500 L
 H-H_-0.079100    0  -15.83008600    1.78513500  -13.29343500 L
 H-H_-0.079100    0  -17.50596500    1.23469700  -12.92268300 L
 H-H_-0.079100    0  -16.13141000    0.66567400  -11.92351900 L
 C-C_R-0.597300   0  -17.93224600    0.70101100  -15.51229300 L