%nprocshared=16
%mem=8000MB
%chk=final-ME.chk
# opt=(quadmac,maxcycles=10000) oniom(ub1lyp/gen:uff)  
  scf=direct EmpiricalDispersion=GD2
  
ONIOM (QM/MM) Optimized Strcuture

1 2 1 2 1 2
 N-N_3            0   -6.99622400   11.16138800   -1.83839000 H
 H-H_             0   -6.20772900   10.70534300   -1.37732000 H
 H-H_             0   -7.81203300   10.89166100   -1.28888400 H
 C-C_3            0   -6.81162900   12.62263500   -1.72696300 H
 H-H_             0   -5.81046900   12.84469000   -2.08658100 H
 C-C_3            0   -7.83445600   13.36884800   -2.60215100 H
 H-H_             0   -8.83862000   12.95776400   -2.45650400 H
 H-H_             0   -7.86164000   14.42302800   -2.31120700 H
 C-C_R            0   -7.41583300   13.26307200   -4.03195100 H
 N-N_R            0   -7.31084500   12.02373700   -4.65183500 H
 C-C_R            0   -6.98193100   14.22838100   -4.90058500 H
 H-H_             0   -6.87999300   15.29516200   -4.78849300 H
 C-C_R            0   -6.83054900   12.25631400   -5.86878300 H
 H-H_             0   -6.60151800   11.52193300   -6.61997600 H
 N-N_R            0   -6.62975100   13.56929700   -6.05811300 H
 H-H_             0   -6.15453100   13.92820100   -6.88294100 H
 C-C_R            0   -6.92533600   13.01422700   -0.25441200 H
 O-O_R            0   -7.86096700   12.59847300    0.44694000 H
 N-N_R--0.415700  0   -5.93074500   13.78971700    0.20543800 H
 H-H_-0.271900    0   -5.18110600   14.03522600   -0.43758600 H
 C-C_3--0.025200  0   -5.77875300   14.14649400    1.61069400 H
 H-H_-0.069800    0   -6.11938700   15.16614000    1.80348700 H
 H-H_-0.069800    0   -6.40193500   13.46559500    2.19839300 H
 C-C_R-0.597300   0   -4.31928400   14.08518300    2.10518900 H
 O-O_R--0.567900  0   -3.96011400   14.88786900    2.94668100 H
 N-N_R--0.516300  0   -3.54820000   13.14749000    1.47060600 H
 H-H_-0.293600    0   -4.05348800   12.43272100    0.96331900 H
 C-C_3-0.039700   0   -2.15956000   12.72027600    1.72847500 H
 H-H_-0.110500    0   -2.15855800   11.97996800    2.53822900 H
 C-C_3-0.056000   0   -1.61345600   12.02170200    0.46137100 H
 H-H_--0.017300   0   -0.56526200   11.75914400    0.64127000 H
 H-H_--0.017300   0   -2.15982500   11.08233300    0.32047600 H
 C-C_3-0.013600   0   -1.72086500   12.84216300   -0.84101800 H
 H-H_--0.042500   0   -1.31941400   13.85077200   -0.72904900 H
 H-H_--0.042500   0   -1.11553200   12.36035900   -1.61839800 H
 C-C_R-0.805400   0   -3.14395000   12.93685200   -1.38967200 H
 O-O_R--0.818800  0   -3.87122800   11.89373200   -1.37138300 H
 O-O_R--0.818800  0   -3.54891800   14.04913800   -1.83827900 H
 C-C_R-0.536600   0   -1.22208400   13.82006400    2.14219700 L H-H_ 28
 O-O_R--0.581900  0   -0.20771100   13.51241600    2.82675100 L
 N-N_R--0.347900  0   -1.31217000   15.07043100    1.61362700 L
 H-H_-0.274700    0   -2.17230200   15.29035900    1.06342900 L
 C-C_3--0.240000  0   -0.25407000   16.09758600    1.77655900 L
 H-H_-0.142600    0    0.72681400   15.63356200    1.52933900 L
 C-C_3--0.009400  0   -0.46780900   17.28355900    0.80695900 L
 H-H_-0.036200    0   -1.40415500   17.82116600    1.07662000 L
 H-H_-0.036200    0    0.37753300   17.99658900    0.91493200 L
 C-C_3-0.018700   0   -0.55530500   16.82072500   -0.66203500 L
 H-H_-0.010300    0    0.24497300   16.08446300   -0.88359100 L
 H-H_-0.010300    0   -1.52185900   16.29713300   -0.80396200 L
 C-C_3--0.047900  0   -0.53375500   17.98645000   -1.66952500 L
 H-H_-0.062100    0   -1.11138700   17.68944200   -2.57357600 L
 H-H_-0.062100    0   -1.06285200   18.86468100   -1.23887000 L
 C-C_3--0.014300  0    0.87946100   18.40885200   -2.11080800 L
 H-H_-0.113500    0    0.78958500   19.31506400   -2.75586800 L
 H-H_-0.113500    0    1.48394700   18.71465300   -1.22691800 L
 N-N_3--0.385400  0    1.56696200   17.34385200   -2.85690400 L
 H-H_-0.340000    0    2.00835700   16.66433500   -2.19968700 L
 H-H_-0.340000    0    0.92807700   16.81580000   -3.49643800 L
 H-H_-0.340000    0    2.36055300   17.74301200   -3.41386500 L
 C-C_R-0.734100   0   -0.13400000   16.57860500    3.21147800 L
 O-O_R--0.589400  0    1.00637400   16.88734600    3.65259300 L
 N-N_R--0.415700  0   -1.22050400   16.67927800    4.01617900 L
 H-H_-0.271900    0   -2.14156600   16.38656100    3.62507900 L
 C-C_3--0.024900  0   -1.14885300   17.01505500    5.45675000 L
 H-H_-0.084300    0   -0.18960400   17.52617900    5.68876700 L
 C-C_3-0.211700   0   -2.27434100   17.97941200    5.84068500 L
 H-H_-0.035200    0   -3.25981300   17.54172900    5.55403500 L
 H-H_-0.035200    0   -2.26580300   18.14494300    6.94251400 L
 O-O_3--0.654600  0   -2.08147100   19.20633800    5.18981800 L
 H-H_-0.427500    0   -2.90044700   19.74157200    5.35872900 L
 C-C_R-0.597300   0   -1.25686200   15.75845800    6.29006900 L
 O-O_R--0.567900  0   -2.33995900   15.11713700    6.29425600 L
 N-N_R--0.415700  0   -0.18820600   15.28263500    6.97762700 L
 H-H_-0.271900    0    0.68438100   15.85620600    6.99468400 L
 C-C_3--0.003100  0   -0.09118200   13.88336900    7.44492600 L
 H-H_-0.085000    0   -1.08066600   13.38396700    7.35504300 L
 C-C_3--0.003600  0    0.92169200   13.15832900    6.53498400 L
 H-H_-0.017100    0    0.69406800   13.40364400    5.47421200 L
 H-H_-0.017100    0    1.93606400   13.56107100    6.73914700 L
 C-C_3--0.064500  0    0.94689600   11.62942700    6.68633500 L
 H-H_-0.035200    0    1.68775400   11.21788800    5.97441400 L
 H-H_-0.035200    0    1.27424300   11.34949800    7.70952700 L
 C-C_R-0.695100   0   -0.37604900   11.00197100    6.37704100 L
 O-O_R--0.608600  0   -1.05979300   10.49379700    7.29328500 L
 N-N_R--0.940700  0   -0.89150800   11.03955500    5.14723000 L
 H-H_-0.425100    0   -0.38090200   11.50992300    4.37199300 L
 H-H_-0.425100    0   -1.83895800   10.63638800    5.01079500 L
 C-C_R-0.597300   0    0.32863300   13.80428200    8.90558600 L
 O-O_R--0.567900  0    1.07517900   14.69641400    9.39146400 L
 N-N_R--0.415700  0   -0.03535800   12.74792500    9.67684000 L
 H-H_-0.271900    0   -0.61881100   11.99975500    9.23905500 L
 C-C_3-0.033700   0    0.46567500   12.55327900   11.05158400 L
 H-H_-0.082300    0    0.21780600   13.45788800   11.64936900 L
 C-C_3--0.182500  0   -0.24962400   11.36117600   11.69869400 L
 H-H_-0.060300    0   -0.04107200   10.42717700   11.13191000 L
 H-H_-0.060300    0    0.09255500   11.22608500   12.74733400 L
 H-H_-0.060300    0   -1.34699000   11.53466000   11.70631800 L
 C-C_R-0.597300   0    1.97489600   12.33783800   11.07282700 L
 O-O_R--0.567900  0    2.48141200   11.47801600   10.30506300 L
 N-N_R--0.415700  0    2.76311000   12.98626200   11.97130200 L
 H-H_-0.271900    0    2.29517000   13.70250900   12.56838400 L
 C-C_3-0.033700   0    4.23405900   13.07173100   11.84538700 L
 H-H_-0.082300    0    4.45789900   13.68351500   10.94647800 L
 C-C_3--0.182500  0    4.81849300   13.81115100   13.05539700 L
 H-H_-0.060300    0    4.53492600   13.31406400   14.00656000 L
 H-H_-0.060300    0    5.92711200   13.84524500   12.98238000 L
 H-H_-0.060300    0    4.45232800   14.86062000   13.07404600 L
 C-C_R-0.597300   0    4.92037500   11.72132300   11.66636000 L
 O-O_R--0.567900  0    5.59696800   11.50984000   10.62311300 L
 N-N_R--0.415700  0    4.83058800   10.75088800   12.61204900 L
 H-H_-0.271900    0    4.25540600   10.94912300   13.45690800 L
 C-C_3--0.002400  0    5.48857700    9.43309000   12.45623700 L
 H-H_-0.097800    0    6.56855400    9.60266300   12.23577900 L
 C-C_3--0.034300  0    5.43528600    8.61592300   13.76990300 L
 H-H_-0.029500    0    6.13294000    7.75264800   13.69211800 L
 H-H_-0.029500    0    5.82520100    9.24227800   14.60201800 L
 C-C_R-0.011800   0    4.05363400    8.10463800   14.11342600 L
 C-C_R--0.125600  0    3.59170800    6.89113300   13.57238900 L
 H-H_-0.133000    0    4.22703500    6.30711900   12.91874200 L
 C-C_R--0.125600  0    3.22911000    8.81464800   15.00198900 L
 H-H_-0.133000    0    3.59009400    9.71392000   15.48269100 L
 C-C_R--0.170400  0    2.30930900    6.42407200   13.87596100 L
 H-H_-0.143000    0    1.95921500    5.49094500   13.45349300 L
 C-C_R--0.170400  0    1.94788700    8.34212500   15.30660700 L
 H-H_-0.143000    0    1.32172800    8.87998700   16.00741500 L
 C-C_R--0.107200  0    1.48695000    7.15148500   14.73969800 L
 H-H_-0.129700    0    0.50248100    6.77869100   14.99548800 L
 C-C_R-0.597300   0    4.91860700    8.64903700   11.28737300 L
 O-O_R--0.567900  0    5.69090600    7.99141500   10.53781800 L
 N-N_R--0.415700  0    3.58632400    8.66450500   11.02344800 L
 H-H_-0.271900    0    2.97998700    9.27775400   11.61089700 L
 C-C_3--0.023700  0    2.96904100    7.81108500    9.98884800 L
 H-H_-0.088000    0    3.47684800    6.82106300   10.02705100 L
 C-C_3-0.034200   0    1.46658800    7.58521900   10.29637900 L
 H-H_-0.024100    0    1.28064400    7.72287700   11.38421700 L
 H-H_-0.024100    0    0.84008000    8.32978500    9.75700400 L
 C-C_3-0.001800   0    1.01805400    6.16375400    9.93726500 L
 H-H_-0.044000    0    1.11591600    5.99374900    8.84490400 L
 H-H_-0.044000    0    1.65982500    5.43758000   10.47945400 L
 S-S_3+2--0.273700  0   -0.71741300    5.89497200   10.43450800 L
 C-C_3--0.053600  0   -0.65762800    4.08796700   10.19771000 L
 H-H_-0.068400    0   -0.43025200    3.85003900    9.13892600 L
 H-H_-0.068400    0    0.11492400    3.63901800   10.85673500 L
 H-H_-0.068400    0   -1.64150600    3.65035500   10.46173400 L
 C-C_R-0.597300   0    3.17811600    8.33172100    8.57122900 L
 O-O_R--0.567900  0    2.82755500    7.58345400    7.61935300 L
 N-N_R--0.347900  0    3.91474800    9.45241200    8.30296400 L
 H-H_-0.274700    0    4.14626700   10.08755100    9.09737900 L
 C-C_3--0.263700  0    4.43222700    9.78976200    6.95069300 L
 H-H_-0.156000    0    3.59087200   10.04492800    6.27619900 L
 C-C_3--0.000700  0    5.43969500   10.95988100    6.99231100 L
 H-H_-0.032700    0    6.20439500   10.78324300    7.78172700 L
 H-H_-0.032700    0    5.96693600   10.98027800    6.01618900 L
 C-C_3-0.039000   0    4.81090900   12.34277000    7.19910300 L
 H-H_-0.028500    0    3.92995300   12.45201100    6.53582600 L
 H-H_-0.028500    0    4.47851900   12.44947800    8.25366300 L
 C-C_3-0.048600   0    5.83233900   13.43523400    6.83322700 L
 H-H_-0.068700    0    6.86522900   13.14474200    7.13316600 L
 H-H_-0.068700    0    5.86532900   13.52719600    5.72347000 L
 N-N_R--0.529500  0    5.47720200   14.73371900    7.41952400 L
 H-H_-0.345600    0    5.04661700   15.44444400    6.79315300 L
 C-C_R-0.807600   0    5.91851600   15.18033600    8.60878300 L
 N-N_R--0.862700  0    5.81372200   16.46220500    8.91239100 L
 H-H_-0.447800    0    5.75518200   17.14835000    8.13679000 L
 H-H_-0.447800    0    6.29240900   16.81030400    9.77211100 L
 N-N_R--0.862700  0    6.45196800   14.35847100    9.49685900 L
 H-H_-0.447800    0    6.52498300   13.34209100    9.33686000 L
 H-H_-0.447800    0    6.84687400   14.74941600   10.37221900 L
 C-C_R-0.734100   0    5.13050800    8.61197400    6.32210800 L
 O-O_R--0.589400  0    4.86029900    8.30038700    5.13616500 L
 N-N_R--0.415700  0    6.12560400    7.98165300    6.98989900 L
 H-H_-0.271900    0    6.37961500    8.35723500    7.93192000 L
 C-C_3--0.023700  0    6.91111600    6.86376800    6.43180300 L
 H-H_-0.088000    0    6.58957700    6.62869600    5.39294400 L
 C-C_3-0.034200   0    8.39521700    7.26281200    6.38860600 L
 H-H_-0.024100    0    8.71946500    7.59068800    7.39880800 L
 H-H_-0.024100    0    9.00522900    6.38915200    6.10259400 L
 C-C_3-0.001800   0    8.64675900    8.36787500    5.35916000 L
 H-H_-0.044000    0    8.39320100    7.98297100    4.34845800 L
 H-H_-0.044000    0    7.99565200    9.24066600    5.56122800 L
 S-S_3+2--0.273700  0   10.40424900    8.87505700    5.33557600 L
 C-C_3--0.053600  0   10.32865900    9.92279100    6.82799800 L
 H-H_-0.068400    0    9.45439900   10.60415800    6.79634700 L
 H-H_-0.068400    0   10.28383200    9.29529900    7.74116300 L
 H-H_-0.068400    0   11.24561000   10.54060000    6.87596000 L
 C-C_R-0.597300   0    6.73215500    5.57474200    7.21578600 L
 O-O_R--0.567900  0    7.27110300    4.52892500    6.77632000 L
 N-N_R--0.347900  0    5.98980000    5.50286300    8.35349400 L
 H-H_-0.274700    0    5.49489900    6.35653600    8.68679600 L
 C-C_3--0.263700  0    5.84339200    4.26888000    9.15945600 L
 H-H_-0.156000    0    6.49810200    3.45585900    8.77664500 L
 C-C_3--0.000700  0    6.25957600    4.53957000   10.62048500 L
 H-H_-0.032700    0    5.58886700    5.30296100   11.07181500 L
 H-H_-0.032700    0    6.15361500    3.59812600   11.20455900 L
 C-C_3-0.039000   0    7.71373700    5.03341000   10.70196500 L
 H-H_-0.028500    0    8.37085500    4.34498300   10.13084100 L
 H-H_-0.028500    0    7.78836800    6.03761300   10.23068200 L
 C-C_3-0.048600   0    8.20653300    5.14917700   12.15008000 L
 H-H_-0.068700    0    9.17392300    5.69335300   12.18474700 L
 H-H_-0.068700    0    7.49379500    5.77891300   12.73024700 L
 N-N_R--0.529500  0    8.32718000    3.82874000   12.78344300 L
 H-H_-0.345600    0    7.59313700    3.56925800   13.47432600 L
 C-C_R-0.807600   0    9.30883500    2.93311900   12.58185800 L
 N-N_R--0.862700  0    9.29115200    1.77953000   13.22405200 L
 H-H_-0.447800    0    8.57599600    1.59151000   13.95717600 L
 H-H_-0.447800    0   10.08247800    1.11342700   13.13486800 L
 N-N_R--0.862700  0   10.29842700    3.16719100   11.73576000 L
 H-H_-0.447800    0   10.38255800    4.05806100   11.22992100 L
 H-H_-0.447800    0   11.06690300    2.47473400   11.62289300 L
 C-C_R-0.734100   0    4.43545900    3.74231500    9.04075200 L
 O-O_R--0.589400  0    3.63720700    3.84495700   10.00767200 L
 N-N_R--0.415700  0    3.99423700    3.28859200    7.84391000 L
 H-H_-0.271900    0    4.69852200    3.20473600    7.07379400 L
 C-C_3--0.038900  0    2.57585900    2.95779500    7.55931600 L
 H-H_-0.100700    0    1.97146600    3.04629500    8.48700000 L
 C-C_3-0.365400   0    1.99324100    3.97289000    6.54902600 L
 H-H_-0.004300    0    2.40712200    4.97637800    6.81059600 L
 O-O_3--0.676100  0    0.59712000    4.00157000    6.66219800 L
 H-H_-0.410200    0    0.31492000    4.89890900    6.33363900 L
 C-C_3--0.243800  0    2.36071200    3.67354900    5.09821800 L
 H-H_-0.064200    0    1.80804000    2.78650800    4.73135700 L
 H-H_-0.064200    0    2.07882900    4.53674500    4.46200600 L
 H-H_-0.064200    0    3.45045500    3.49167400    4.99979000 L
 C-C_R-0.597300   0    2.41712100    1.52162600    7.10060600 L
 O-O_R--0.567900  0    3.43200500    0.78138100    7.00167600 L
 N-N_R--0.415700  0    1.19369600    1.00553300    6.82380600 L
 H-H_-0.271900    0    0.38398900    1.66107500    6.83734900 L
 C-C_3--0.059700  0    1.00349200   -0.37313200    6.31679500 L
 H-H_-0.086900    0    1.51171900   -1.07749600    7.00854600 L
 C-C_3-0.130300   0   -0.50493500   -0.74018600    6.27120400 L
 H-H_-0.018700    0   -1.01026800   -0.00636800    5.60346200 L
 C-C_3--0.043000  0   -1.19157900   -0.61681000    7.65887000 L
 H-H_-0.023600    0   -1.14344000    0.43170700    8.01728300 L
 H-H_-0.023600    0   -2.27043800   -0.84469800    7.54516600 L
 C-C_3--0.320400  0   -0.74840400   -2.13090100    5.65652400 L
 H-H_-0.088200    0   -0.16069300   -2.91471300    6.17742100 L
 H-H_-0.088200    0   -1.82579400   -2.38455000    5.70835800 L
 H-H_-0.088200    0   -0.47358000   -2.13683100    4.57889200 L
 C-C_3--0.066000  0   -0.61091600   -1.52136200    8.75264100 L
 H-H_-0.018600    0    0.41961500   -1.20950800    9.02045900 L
 H-H_-0.018600    0   -1.23625200   -1.43417100    9.66635800 L
 H-H_-0.018600    0   -0.61077400   -2.58548600    8.44038700 L
 C-C_R-0.597300   0    1.63546400   -0.53215300    4.94549600 L
 O-O_R--0.567900  0    1.40668400    0.32561000    4.05135100 L
 N-N_R--0.415700  0    2.43439500   -1.59251900    4.66995700 L
 H-H_-0.271900    0    2.60256200   -2.29066400    5.42795700 L
 C-C_3--0.058100  0    3.06961000   -1.80193200    3.35203300 L
 H-H_-0.136000    0    3.52896400   -0.86110100    3.02015100 L
 C-C_3--0.007400  0    4.17865600   -2.86537600    3.45635000 L
 H-H_-0.036700    0    3.74897700   -3.77565400    3.91359100 L
 H-H_-0.036700    0    4.54831500   -3.09970900    2.43572200 L
 C-C_R-0.186800   0    5.38230300   -2.48319300    4.26992600 L
 N-N_R--0.543200  0    6.45467600   -3.37846200    4.54574300 L
 C-C_R--0.220700  0    5.66148900   -1.30304600    4.80633500 L
 H-H_-0.186200    0    5.02893700   -0.42651200    4.81934700 L
 C-C_R-0.163500   0    7.33446700   -2.65753900    5.25780500 L
 H-H_-0.143500    0    8.19616500   -3.09805700    5.74792900 L
 N-N_R--0.279500  0    6.93189400   -1.38726400    5.43726100 L
 H-H_-0.333900    0    7.37400400   -0.68765600    6.06911000 L
 C-C_R-0.597300   0    2.06504000   -2.21184200    2.28751400 L
 O-O_R--0.567900  0    1.26402900   -3.15346200    2.52677400 L
 N-N_R--0.415700  0    2.11468700   -1.67175900    1.04189700 L
 H-H_-0.271900    0    2.81192900   -0.91938100    0.85334600 L
 C-C_3--0.027500  0    1.22993400   -2.07181400   -0.07386000 L
 H-H_-0.112300    0    0.66457300   -2.99418100    0.17953000 L
 C-C_3--0.005000  0    0.21508000   -0.95193700   -0.36491900 L
 H-H_-0.033900    0    0.75937200   -0.04925800   -0.72275400 L
 H-H_-0.033900    0   -0.47359700   -1.26750600   -1.17727100 L
 C-C_R--0.141500  0   -0.59831300   -0.57736000    0.83997900 L
 C-C_R--0.163800  0   -0.40950200    0.51676200    1.58412200 L
 H-H_-0.206200    0    0.39609200    1.22710300    1.43908100 L
 C-C_R-0.124300   0   -1.77217000   -1.26434800    1.37211200 L
 N-N_R--0.341800  0   -1.39667500    0.62679600    2.61520600 L
 H-H_-0.341200    0   -1.41228400    1.30161400    3.41128000 L
 C-C_R-0.138000   0   -2.21469700   -0.51479300    2.43296600 L
 C-C_R--0.238700  0   -2.42697800   -2.42918200    0.97612500 L
 H-H_-0.170000    0   -2.06055100   -3.01213700    0.14353900 L
 C-C_R--0.260100  0   -3.33990100   -0.87183100    3.16829400 L
 H-H_-0.157200    0   -3.67272200   -0.26209200    3.99583200 L
 C-C_R--0.197200  0   -3.56768000   -2.81932400    1.70498500 L
 H-H_-0.144700    0   -4.09479000   -3.72685400    1.43968500 L
 C-C_R--0.113400  0   -4.02361400   -2.04200500    2.79122400 L
 H-H_-0.141700    0   -4.90463300   -2.35079900    3.33504400 L
 C-C_R-0.597300   0    2.04737400   -2.32457700   -1.33016700 L
 O-O_R--0.567900  0    2.67719600   -1.36290700   -1.84736000 L
 N-N_R--0.415700  0    2.07454800   -3.54031800   -1.93365200 L
 H-H_-0.271900    0    1.58758500   -4.34146000   -1.47636900 L
 C-C_3--0.001400  0    2.80462200   -3.77380600   -3.20111900 L
 H-H_-0.087600    0    2.83998900   -2.81794400   -3.76891000 L
 C-C_3--0.015200  0    4.27066900   -4.17723300   -2.91602000 L
 H-H_-0.029500    0    4.90171600   -3.79706300   -3.74971100 L
 H-H_-0.029500    0    4.63859000   -3.65408100   -2.00633400 L
 C-C_R--0.001100  0    4.49276100   -5.66237000   -2.74840300 L
 C-C_R--0.190600  0    5.27660100   -6.35904500   -3.68159400 L
 H-H_-0.169900    0    5.70381800   -5.83826400   -4.53452300 L
 C-C_R--0.190600  0    3.97794000   -6.34962100   -1.63738100 L
 H-H_-0.169900    0    3.38894600   -5.82471800   -0.89608100 L
 C-C_R--0.234100  0    5.55593300   -7.71776600   -3.49609000 L
 H-H_-0.165600    0    6.17615300   -8.22668600   -4.22018900 L
 C-C_R--0.234100  0    4.25163300   -7.71390400   -1.46174200 L
 H-H_-0.165600    0    3.86561300   -8.23701200   -0.59848800 L
 C-C_R-0.322600   0    5.05896200   -8.39521400   -2.37138000 L
 O-O_R--0.557900  0    5.33617500   -9.66579600   -2.15257100 L
 H-H_-0.399200    0    5.99769400  -10.03847500   -2.82174700 L
 C-C_R-0.597300   0    2.08101000   -4.73807400   -4.13073900 L
 O-O_R--0.567900  0    1.02491200   -5.30787200   -3.74592200 L
 N-N_R--0.516300  0    2.48417100   -4.87339500   -5.42137000 L
 H-H_-0.293600    0    3.41783700   -4.48258400   -5.67153100 L
 C-C_3-0.038100   0    1.82611200   -5.74150100   -6.42324700 L
 H-H_-0.088000    0    2.15763600   -5.42816200   -7.43906400 L
 C-C_3--0.030300  0    2.26588000   -7.19980900   -6.21575800 L
 H-H_--0.012200   0    2.08331200   -7.48418900   -5.15825600 L
 H-H_--0.012200   0    1.65116600   -7.86546900   -6.85812800 L
 C-C_R-0.799400   0    3.71118200   -7.44920300   -6.55418800 L
 O-O_R--0.801400  0    4.15574600   -8.62892200   -6.49428000 L
 O-O_R--0.801400  0    4.43301600   -6.55924300   -7.07744200 L
 C-C_R-0.536600   0    0.30710700   -5.57855500   -6.43111200 L
 O-O_R--0.581900  0   -0.45711400   -6.57738300   -6.26569300 L
 N-N_R--0.415700  0   -0.22984600   -4.35224300   -6.65183900 L
 H-H_-0.271900    0    0.42251200   -3.58759800   -6.92819000 L
 C-C_3--0.051800  0   -1.68063900   -4.11040800   -6.69683600 L
 H-H_-0.092200    0   -2.19318700   -4.81945900   -6.02291000 L
 C-C_3--0.110200  0   -2.02412800   -2.68848100   -6.20502400 L
 H-H_-0.045700    0   -1.63777600   -1.94686100   -6.93754400 L
 H-H_-0.045700    0   -3.13186100   -2.57992200   -6.18518100 L
 C-C_3-0.353100   0   -1.45849600   -2.34141300   -4.81042500 L
 H-H_--0.036100   0   -0.34803300   -2.35409300   -4.84633400 L
 C-C_3--0.412100  0   -1.89900200   -0.93713700   -4.42356300 L
 H-H_-0.100000    0   -3.00114200   -0.88130300   -4.32949700 L
 H-H_-0.100000    0   -1.44874700   -0.65364100   -3.45292300 L
 H-H_-0.100000    0   -1.56655300   -0.21642400   -5.19747800 L
 C-C_3--0.412100  0   -1.91879200   -3.31785600   -3.73190200 L
 H-H_-0.100000    0   -1.68962500   -2.92316200   -2.72057700 L
 H-H_-0.100000    0   -3.00820700   -3.50692900   -3.82196400 L
 H-H_-0.100000    0   -1.35922000   -4.26619800   -3.84014500 L
 C-C_R-0.597300   0   -2.20831600   -4.33459900   -8.09614700 L
 O-O_R--0.567900  0   -1.81968200   -3.58567100   -9.02947400 L
 N-N_R--0.415700  0   -3.14245700   -5.28781000   -8.33956900 L
 H-H_-0.271900    0   -3.54846900   -5.79047200   -7.52057000 L
 C-C_3--0.024900  0   -3.71854500   -5.53287100   -9.67665900 L
 H-H_-0.084300    0   -3.12662200   -4.99958600  -10.45043100 L
 C-C_3-0.211700   0   -3.64515600   -7.02181800  -10.06422500 L
 H-H_-0.035200    0   -4.26816000   -7.20739200  -10.96646500 L
 H-H_-0.035200    0   -2.59769100   -7.27855300  -10.34547400 L
 O-O_3--0.654600  0   -4.08223100   -7.86030000   -9.02300800 L
 H-H_-0.427500    0   -3.29671800   -7.97312900   -8.42018800 L
 C-C_R-0.597300   0   -5.12747100   -4.99378000   -9.74600600 L
 O-O_R--0.567900  0   -6.08805700   -5.66691500   -9.28670400 L
 N-N_R--0.415700  0   -5.36140000   -3.75678900  -10.25512000 L
 H-H_-0.271900    0   -4.51573400   -3.21190600  -10.53755000 L
 C-C_3--0.027500  0   -6.65558800   -3.04781900  -10.10126200 L
 H-H_-0.112300    0   -6.87529300   -2.99777100   -9.01049800 L
 C-C_3--0.005000  0   -6.56640300   -1.60466000  -10.67028500 L
 H-H_-0.033900    0   -5.51196200   -1.26660200  -10.75148300 L
 H-H_-0.033900    0   -6.98758200   -1.56076400  -11.69944500 L
 C-C_R--0.141500  0   -7.26123900   -0.61401800   -9.78005000 L
 C-C_R--0.163800  0   -8.32984500    0.12749300  -10.09389000 L
 H-H_-0.206200    0   -8.84940000    0.08966100  -11.04537100 L
 C-C_R-0.124300   0   -6.84117600   -0.22190800   -8.43870700 L
 N-N_R--0.341800  0   -8.69983900    0.99827800   -9.01271200 L
 H-H_-0.341200    0   -9.16452600    1.92991400   -9.11476700 L
 C-C_R-0.138000   0   -7.73578800    0.72342500   -8.01005100 L
 C-C_R--0.238700  0   -5.72127400   -0.56909500   -7.68328100 L
 H-H_-0.170000    0   -4.99091200   -1.27446400   -8.05985500 L
 C-C_R--0.260100  0   -7.59978200    1.35775000   -6.77982100 L
 H-H_-0.157200    0   -8.31569300    2.10295600   -6.45768300 L
 C-C_R--0.197200  0   -5.55360100    0.06164900   -6.43643400 L
 H-H_-0.144700    0   -4.68702800   -0.16297200   -5.82876700 L
 C-C_R--0.113400  0   -6.49575600    1.00963500   -5.98064200 L
 H-H_-0.141700    0   -6.35617200    1.48271000   -5.01662000 L
 C-C_R-0.597300   0   -7.83260000   -3.78806900  -10.72291800 L
 O-O_R--0.567900  0   -8.99367400   -3.45290600  -10.38351400 L
 N-N_R--0.415700  0   -7.65672000   -4.74682900  -11.67406600 L
 H-H_-0.271900    0   -6.68832300   -4.87177000  -12.04068900 L
 C-C_3--0.024900  0   -8.70802400   -5.61376800  -12.26863900 L
 H-H_-0.084300    0   -8.16663900   -6.47986000  -12.71168600 L
 C-C_3-0.211700   0   -9.66195000   -6.25725600  -11.23551600 L
 H-H_-0.035200    0   -9.92940600   -7.27828500  -11.58570500 L
 H-H_-0.035200    0   -9.13168000   -6.39530000  -10.26306400 L
 O-O_3--0.654600  0  -10.86231000   -5.54325800  -11.08374000 L
 H-H_-0.427500    0  -10.73560000   -4.97738000  -10.26835600 L
 C-C_R-0.597300   0   -9.41653500   -4.96083900  -13.43764100 L
 O-O_R--0.567900  0   -9.23914900   -5.44348100  -14.58879500 L
 N-N_R--0.347900  0  -10.12979400   -3.81403800  -13.29381900 L
 H-H_-0.274700    0  -10.32428600   -3.48862300  -12.32148700 L
 C-C_3--0.240000  0  -10.54215100   -2.95257800  -14.42593700 L
 H-H_-0.142600    0   -9.66183200   -2.81079900  -15.09121100 L
 C-C_3--0.009400  0  -11.64837400   -3.60516800  -15.28635100 L
 H-H_-0.036200    0  -12.00176200   -2.85351300  -16.02865700 L
 H-H_-0.036200    0  -11.20887900   -4.44184300  -15.87185000 L
 C-C_3-0.018700   0  -12.84699100   -4.14698200  -14.48666800 L
 H-H_-0.010300    0  -12.52028800   -5.01950300  -13.88117000 L
 H-H_-0.010300    0  -13.23035100   -3.37184900  -13.79499300 L
 C-C_3--0.047900  0  -13.97500600   -4.57215100  -15.44090600 L
 H-H_-0.062100    0  -14.18288300   -3.73625900  -16.14766500 L
 H-H_-0.062100    0  -13.64808400   -5.44513500  -16.04744700 L
 C-C_3--0.014300  0  -15.28714300   -4.89055500  -14.70890300 L
 H-H_-0.113500    0  -15.56498000   -4.02933500  -14.05666700 L
 H-H_-0.113500    0  -16.09805800   -4.99296800  -15.47147500 L
 N-N_3--0.385400  0  -15.19491800   -6.12577100  -13.91862800 L
 H-H_-0.340000    0  -14.59624800   -5.99062600  -13.07178500 L
 H-H_-0.340000    0  -16.15058100   -6.39649500  -13.58226200 L
 H-H_-0.340000    0  -14.83289800   -6.92069500  -14.49045700 L
 C-C_R-0.734100   0  -10.96798500   -1.58360900  -13.94179100 L
 O-O_R--0.589400  0  -11.83452300   -1.49979500  -13.03511500 L
 N-N_R--0.516300  0  -10.42475300   -0.45850300  -14.46255400 L
 H-H_-0.293600    0   -9.68976200   -0.56239200  -15.19447300 L
 C-C_3-0.039700   0  -10.83848800    0.90167900  -14.04535000 L
 H-H_-0.110500    0  -11.43447600    0.82596000  -13.10857400 L
 C-C_3-0.056000   0   -9.60837900    1.76546200  -13.66389700 L
 H-H_--0.017300   0   -9.90549800    2.42942200  -12.82731300 L
 H-H_--0.017300   0   -8.80494900    1.11293900  -13.25834700 L
 C-C_3-0.013600   0   -9.02816100    2.66836600  -14.76269300 L
 H-H_--0.042500   0   -9.81998200    3.29120100  -15.23024600 L
 H-H_--0.042500   0   -8.32551200    3.38410500  -14.28068300 L
 C-C_R-0.805400   0   -8.28235100    1.89584700  -15.80715800 L
 O-O_R--0.818800  0   -8.91490400    1.14098800  -16.58832500 L
 O-O_R--0.818800  0   -7.15454400    2.31007800  -16.18368200 L
 C-C_R-0.536600   0  -11.78880800    1.57613000  -15.02821100 L
 O-O_R--0.581900  0  -12.42421000    2.58731800  -14.63387800 L
 N-N_R--0.347900  0  -12.07945100    1.04423500  -16.24959200 L
 H-H_-0.274700    0  -11.52766800    0.21970200  -16.57236500 L
 C-C_3--0.240000  0  -13.24175900    1.48092000  -17.06147900 L
 H-H_-0.142600    0  -13.52599800    2.51985700  -16.79276200 L
 C-C_3--0.009400  0  -12.91117200    1.46657900  -18.57346000 L
 H-H_-0.036200    0  -12.39560400    0.51923700  -18.84620600 L
 H-H_-0.036200    0  -13.86394800    1.48982000  -19.14880700 L
 C-C_3-0.018700   0  -12.07604100    2.67716800  -19.04354000 L
 H-H_-0.010300    0  -12.00884900    2.63707600  -20.15272700 L
 H-H_-0.010300    0  -12.59408600    3.62222100  -18.77276600 L
 C-C_3--0.047900  0  -10.65926300    2.67510500  -18.45989800 L
 H-H_-0.062100    0  -10.72529600    2.87517400  -17.37267600 L
 H-H_-0.062100    0  -10.20747200    1.67285100  -18.62482400 L
 C-C_3--0.014300  0   -9.75152800    3.74200900  -19.08744500 L
 H-H_-0.113500    0   -9.65121900    3.54069400  -20.18066100 L
 H-H_-0.113500    0  -10.22430100    4.74734800  -18.96635600 L
 N-N_3--0.385400  0   -8.42528500    3.72732500  -18.44721200 L
 H-H_-0.340000    0   -7.75050400    4.35308300  -18.94106200 L
 H-H_-0.340000    0   -8.48452200    4.05131800  -17.45295500 L
 H-H_-0.340000    0   -8.01891400    2.75876000  -18.42496600 L
 C-C_R-0.734100   0  -14.43193300    0.59458800  -16.75740500 L
 O-O_R--0.589400  0  -14.37904900   -0.62917600  -17.06411700 L
 N-N_R--0.415700  0  -15.45351800    1.05551700  -15.99277000 L
 H-H_-0.271900    0  -15.42344800    2.05931700  -15.70485800 L
 C-C_3--0.087500  0  -16.51568600    0.19511800  -15.41003400 L
 H-H_-0.096900    0  -16.57920000   -0.75624000  -15.98006000 L
 C-C_3-0.298500   0  -16.19218100   -0.16191100  -13.93163500 L
 H-H_--0.029700   0  -16.88735500   -0.95659200  -13.59257800 L
 C-C_3--0.319200  0  -14.77846000   -0.73077100  -13.80337400 L
 H-H_-0.079100    0  -14.63158700   -1.56209300  -14.52041900 L
 H-H_-0.079100    0  -14.02222000    0.05522900  -14.00590100 L
 H-H_-0.079100    0  -14.58752900   -1.10321200  -12.78043400 L
 C-C_3--0.319200  0  -16.35841900    1.01846700  -12.97625300 L
 H-H_-0.079100    0  -15.71730100    1.85856300  -13.30175000 L
 H-H_-0.079100    0  -17.41281500    1.36138700  -12.94381700 L
 H-H_-0.079100    0  -16.06130200    0.73097100  -11.94914300 L
 C-C_R-0.597300   0  -17.88378900    0.84110900  -15.52794500 L